(set-logic HORN)
(declare-fun inv ((_ BitVec 64) (_ BitVec 64) (_ BitVec 64) ) Bool)
(assert (forall ((i (_ BitVec 64)) (j (_ BitVec 64)) (k (_ BitVec 64))) 
       (=> ( and ( = i (_ bv0 64) ) ( bvugt j (_ bv0 64) ) ( bvugt k (_ bv0 64) ) ) (inv i j k))))
(assert (forall ((i (_ BitVec 64)) (j (_ BitVec 64)) (k (_ BitVec 64)) (i! (_ BitVec 64)) (j! (_ BitVec 64)) (k! (_ BitVec 64))) 
       (=> (and (inv i j k) ( and ( bvult i ( bvmul j k ) ) ( = i! ( bvadd i (_ bv1 64) ) ) ( = j! j ) ( = k! k ) )) (inv i! j! k!))))
(assert (forall ((i (_ BitVec 64)) (j (_ BitVec 64)) (k (_ BitVec 64))) 
       (=> (inv i j k) ( or ( bvult i ( bvmul j k ) ) ( = i ( bvmul j k ) ) ))))
(check-sat)
